NAME : 30_2_03.50632.tour
COMMENT : Cost = 0_50632
COMMENT : Found by LKH [Keld Helsgaun] Thu Sep 14 11:07:26 2017
TYPE : TOUR
DIMENSION : 32
TOUR_SECTION
1
4
14
13
11
15
12
17
10
8
29
9
6
5
7
31
30
18
32
2
28
25
27
3
22
20
21
19
23
26
24
16
-1
EOF
